Monthly_Savings-pulp.mps
*SENSE:Maximize
NAME          MODEL
ROWS
 N  OBJ
 G  C0000000
 G  C0000001
 G  C0000002
 G  C0000003
 G  C0000004
 G  C0000005
 G  C0000006
 G  C0000007
 G  C0000008
 G  C0000009
 L  C0000010
 L  C0000011
 L  C0000012
 L  C0000013
 L  C0000014
 L  C0000015
 L  C0000016
 L  C0000017
 L  C0000018
 L  C0000019
 L  C0000020
COLUMNS
    X0000000  C0000006  -1.000000000000e+02
    X0000000  C0000016  -1.000000000000e+02
    X0000000  C0000020  -1.000000000000e+02
    X0000001  C0000008  -7.000000000000e+01
    X0000001  C0000018  -7.000000000000e+01
    X0000001  C0000020  -7.000000000000e+01
    X0000002  C0000000  -4.600000000000e+02
    X0000002  C0000010  -4.600000000000e+02
    X0000002  C0000020  -4.600000000000e+02
    X0000003  C0000005  -4.200000000000e+02
    X0000003  C0000015  -4.200000000000e+02
    X0000003  C0000020  -4.200000000000e+02
    X0000004  C0000009  -1.000000000000e+02
    X0000004  C0000019  -1.000000000000e+02
    X0000004  C0000020  -1.000000000000e+02
    X0000005  C0000003  -3.500000000000e+01
    X0000005  C0000013  -3.500000000000e+01
    X0000005  C0000020  -3.500000000000e+01
    X0000006  C0000004  -1.400000000000e+02
    X0000006  C0000014  -1.400000000000e+02
    X0000006  C0000020  -1.400000000000e+02
    X0000007  C0000020   1.000000000000e+00
    X0000007  OBJ        1.000000000000e+00
    X0000008  C0000002  -1.000000000000e+02
    X0000008  C0000012  -1.000000000000e+02
    X0000008  C0000020  -1.000000000000e+02
    X0000009  C0000001  -1.100000000000e+02
    X0000009  C0000011  -1.100000000000e+02
    X0000009  C0000020  -1.100000000000e+02
    X0000010  C0000007  -2.100000000000e+02
    X0000010  C0000017  -2.100000000000e+02
    X0000010  C0000020  -2.100000000000e+02
RHS
    RHS       C0000000  -4.500000000000e+02
    RHS       C0000001  -1.000000000000e+02
    RHS       C0000002  -9.000000000000e+01
    RHS       C0000003  -2.500000000000e+01
    RHS       C0000004  -1.300000000000e+02
    RHS       C0000005  -4.100000000000e+02
    RHS       C0000006  -9.000000000000e+01
    RHS       C0000007  -2.000000000000e+02
    RHS       C0000008  -6.000000000000e+01
    RHS       C0000009  -9.000000000000e+01
    RHS       C0000010   4.000000000000e+01
    RHS       C0000011   1.000000000000e+01
    RHS       C0000012   1.000000000000e+02
    RHS       C0000013   1.500000000000e+01
    RHS       C0000014   6.000000000000e+01
    RHS       C0000015   8.000000000000e+01
    RHS       C0000016   2.300000000000e+02
    RHS       C0000017   4.000000000000e+01
    RHS       C0000018   1.300000000000e+02
    RHS       C0000019   1.000000000000e+01
    RHS       C0000020  -1.745000000000e+03
BOUNDS
 UP BND       X0000000   2.000000000000e-01
 UP BND       X0000001   2.000000000000e-01
 UP BND       X0000002   2.000000000000e-01
 UP BND       X0000003   2.000000000000e-01
 UP BND       X0000004   2.000000000000e-01
 UP BND       X0000005   2.000000000000e-01
 UP BND       X0000006   2.000000000000e-01
 FR BND       X0000007
 UP BND       X0000008   2.000000000000e-01
 UP BND       X0000009   2.000000000000e-01
 UP BND       X0000010   2.000000000000e-01
ENDATA
