Monthly_Savings-pulp.sol
Optimal - objective value -1286.00000000
      0 C0000000             -92                      -0
      1 C0000001             -22                      -0
      2 C0000002             -20                      -0
      3 C0000003              -7                      -0
      4 C0000004             -28                      -0
      5 C0000005             -84                      -0
      6 C0000006             -20                      -0
      7 C0000007             -42                      -0
      8 C0000008             -14                      -0
      9 C0000009             -20                      -0
     10 C0000010             -92                      -0
     11 C0000011             -22                      -0
     12 C0000012             -20                      -0
     13 C0000013              -7                      -0
     14 C0000014             -28                      -0
     15 C0000015             -84                      -0
     16 C0000016             -20                      -0
     17 C0000017             -42                      -0
     18 C0000018             -14                      -0
     19 C0000019             -20                      -0
     20 C0000020           -1635                       1
      0 X0000000             0.2                     100
      1 X0000001             0.2                      70
      2 X0000002             0.2                     460
      3 X0000003             0.2                     420
      4 X0000004             0.2                     100
      5 X0000005             0.2                      35
      6 X0000006             0.2                     140
      7 X0000007           -1286                       0
      8 X0000008             0.2                     100
      9 X0000009             0.2                     110
     10 X0000010             0.2                     210
